presolving:
(round 1, fast)       0 del vars, 240 del conss, 0 add conss, 33600 chg bounds, 0 chg sides, 33600 chg coeffs, 0 upgd conss, 0 impls, 0 clqs
   (0.3s) running MILP presolver
   (0.3s) MILP presolver found nothing
(round 2, exhaustive) 0 del vars, 240 del conss, 0 add conss, 33600 chg bounds, 0 chg sides, 33600 chg coeffs, 33600 upgd conss, 0 impls, 0 clqs
   (0.6s) probing: 51/240 (21.2%) - 0 fixings, 0 aggregations, 0 implications, 0 bound changes
   (0.6s) probing aborted: 50/50 successive totally useless probings
   (0.8s) symmetry computation started: requiring (bin +, int -, cont +), (fixed: bin -, int +, cont -)
   (0.9s) no symmetry present
presolving (3 rounds: 3 fast, 2 medium, 2 exhaustive):
 0 deleted vars, 240 deleted constraints, 0 added constraints, 33600 tightened bounds, 0 added holes, 0 changed sides, 33600 changed coefficients
 33600 implications, 0 cliques
presolved problem has 33840 variables (240 bin, 0 int, 0 impl, 33600 cont) and 33740 constraints
  33600 constraints of type <varbound>
    140 constraints of type <linear>
Presolving Time: 0.84

 time | node  | left  |LP iter|LP it/n|mem/heur|mdpt |vars |cons |rows |cuts |sepa|confs|strbr|  dualbound   | primalbound  |  gap   | compl. 
p 1.1s|     1 |     0 |   140 |     - |   locks|   0 |  33k|  33k|  33k|   0 |  0 |   0 |   0 | 0.000000e+00 | 4.884300e+05 |    Inf | unknown
i 1.1s|     1 |     0 |   140 |     - |  oneopt|   0 |  33k|  33k|  33k|   0 |  0 |   0 |   0 | 0.000000e+00 | 2.302220e+05 |    Inf | unknown
  4.4s|     1 |     0 |  6324 |     - |   304M |   0 |  33k|  33k|  33k|   0 |  0 |   0 |   0 | 6.243997e+04 | 2.302220e+05 | 268.71%| unknown
r 4.4s|     1 |     0 |  6324 |     - |simplero|   0 |  33k|  33k|  33k|   0 |  0 |   0 |   0 | 6.243997e+04 | 9.146849e+04 |  46.49%| unknown
r 4.5s|     1 |     0 |  6324 |     - |shifting|   0 |  33k|  33k|  33k|   0 |  0 |   0 |   0 | 6.243997e+04 | 8.912668e+04 |  42.74%| unknown
r 4.9s|     1 |     0 |  7866 |     - |intshift|   0 |  33k|  33k|  33k|   0 |  2 |   0 |   0 | 6.243997e+04 | 8.103100e+04 |  29.77%| unknown
d 9.4s|     1 |     0 | 13529 |     - |farkasdi|   0 |  33k|  33k|  33k|   0 |  2 |   0 |   0 | 6.243997e+04 | 7.845875e+04 |  25.65%| unknown
d 9.7s|     1 |     0 | 13992 |     - |farkasdi|   0 |  33k|  33k|  33k|   0 |  2 |   0 |   0 | 6.243997e+04 | 7.254400e+04 |  16.18%| unknown
L15.3s|     1 |     0 | 18010 |     - |    rens|   0 |  33k|  33k|  33k|   0 |  2 |   0 |   0 | 6.243997e+04 | 6.354000e+04 |   1.76%| unknown
 15.6s|     1 |     0 | 18010 |     - |   331M |   0 |  33k|  33k|  33k|   0 |  2 |   0 |   0 | 6.243997e+04 | 6.354000e+04 |   1.76%| unknown
 15.7s|     1 |     0 | 18010 |     - |   339M |   0 |  33k|  33k|  33k|   0 |  2 |   0 |   0 | 6.243997e+04 | 6.354000e+04 |   1.76%| unknown
 15.8s|     1 |     0 | 18010 |     - |   339M |   0 |  33k|  33k|  21k|   0 |  3 |   0 |   0 | 6.243997e+04 | 6.354000e+04 |   1.76%| unknown
(run 1, node 1) restarting after 96 global fixings of integer variables

presolving:
(round 1, fast)       13536 del vars, 0 del conss, 0 add conss, 0 chg bounds, 0 chg sides, 0 chg coeffs, 0 upgd conss, 33600 impls, 0 clqs
   (16.0s) running MILP presolver
   (16.0s) MILP presolver found nothing
presolving (2 rounds: 2 fast, 1 medium, 1 exhaustive):
 13536 deleted vars, 0 deleted constraints, 0 added constraints, 0 tightened bounds, 0 added holes, 0 changed sides, 0 changed coefficients
 33600 implications, 0 cliques
presolved problem has 20304 variables (144 bin, 0 int, 0 impl, 20160 cont) and 20300 constraints
  20160 constraints of type <varbound>
    140 constraints of type <linear>
Presolving Time: 1.09
transformed 29/31 original solutions to the transformed problem space

 time | node  | left  |LP iter|LP it/n|mem/heur|mdpt |vars |cons |rows |cuts |sepa|confs|strbr|  dualbound   | primalbound  |  gap   | compl. 
 17.4s|     1 |     0 | 22134 |     - |   349M |   0 |  20k|  20k|  20k|   0 |  0 |   0 |   0 | 6.243997e+04 | 6.354000e+04 |   1.76%| unknown
 17.4s|     1 |     0 | 22134 |     - |   349M |   0 |  20k|  20k|  20k|   0 |  0 |   0 |   0 | 6.243997e+04 | 6.354000e+04 |   1.76%| unknown
 17.6s|     1 |     0 | 22340 |     - |   352M |   0 |  20k|  20k|  20k|   1 |  1 |   0 |   0 | 6.246574e+04 | 6.354000e+04 |   1.72%| unknown
 30.0s|     1 |     2 | 26178 |     - |   370M |   0 |  20k|  20k|  20k|   1 |  3 |   0 |  27 | 6.270356e+04 | 6.354000e+04 |   1.33%| unknown

SCIP Status        : problem is solved [optimal solution found]
Solving Time (sec) : 53.06
Solving Nodes      : 15 (total of 16 nodes in 2 runs)
Primal Bound       : +6.35400000000000e+04 (168 solutions)
Dual Bound         : +6.35400000000000e+04
Gap                : 0.00 %
Solve Status: optimal
Solve Time: 53.08 seconds
Objective Value: 63540.00
